c gencount --qnf --reset --enable 3
c $Id: gencount.c,v 1.19 2003/11/17 21:14:59 biere Exp $
p cnf 102 259
e 55 56 57 58 59 60 61 62 63 64 65 66 67 68 69 70 71 72 91 92 93 94 95 96 97 98 99 0
r 0.126 102 0
e 37 38 39 40 41 42 43 44 45 46 47 48 49 50 51 52 53 54 82 83 84 85 86 87 88 89 90 0
r 0.222 101 0
e 19 20 21 22 23 24 25 26 27 28 29 30 31 32 33 34 35 36 73 74 75 76 77 78 79 80 81 0
r 0.659 100 0
e 1 2 3 4 5 6 7 8 9 10 11 12 13 14 15 16 17 18 0
-102 -37 55 0
-102 37 -55 0
-102 -38 56 0
-102 38 -56 0
-102 -39 57 0
-102 39 -57 0
-102 -40 58 0
-102 40 -58 0
-102 -41 59 0
-102 41 -59 0
-102 -42 60 0
-102 42 -60 0
-102 -43 61 0
-102 43 -61 0
-102 -44 62 0
-102 44 -62 0
-102 -45 63 0
-102 45 -63 0
-102 -46 91 0
-102 46 -91 0
-102 -47 92 0
-102 47 -92 0
-102 -48 93 0
-102 48 -93 0
-102 -49 94 0
-102 49 -94 0
-102 -50 95 0
-102 50 -95 0
-102 -51 96 0
-102 51 -96 0
-102 -52 97 0
-102 52 -97 0
-102 -53 98 0
-102 53 -98 0
-102 -54 99 0
-102 54 -99 0
102 -37 91 0
102 37 -91 0
102 -38 92 0
102 38 -92 0
102 -39 93 0
102 39 -93 0
102 -40 94 0
102 40 -94 0
102 -41 95 0
102 41 -95 0
102 -42 96 0
102 42 -96 0
102 -43 97 0
102 43 -97 0
102 -44 98 0
102 44 -98 0
102 -45 99 0
102 45 -99 0
102 -46 64 0
102 46 -64 0
102 -47 65 0
102 47 -65 0
102 -48 66 0
102 48 -66 0
102 -49 67 0
102 49 -67 0
102 -50 68 0
102 50 -68 0
102 -51 69 0
102 51 -69 0
102 -52 70 0
102 52 -70 0
102 -53 71 0
102 53 -71 0
102 -54 72 0
102 54 -72 0
-101 -19 37 0
-101 19 -37 0
-101 -20 38 0
-101 20 -38 0
-101 -21 39 0
-101 21 -39 0
-101 -22 40 0
-101 22 -40 0
-101 -23 41 0
-101 23 -41 0
-101 -24 42 0
-101 24 -42 0
-101 -25 43 0
-101 25 -43 0
-101 -26 44 0
-101 26 -44 0
-101 -27 45 0
-101 27 -45 0
-101 -28 82 0
-101 28 -82 0
-101 -29 83 0
-101 29 -83 0
-101 -30 84 0
-101 30 -84 0
-101 -31 85 0
-101 31 -85 0
-101 -32 86 0
-101 32 -86 0
-101 -33 87 0
-101 33 -87 0
-101 -34 88 0
-101 34 -88 0
-101 -35 89 0
-101 35 -89 0
-101 -36 90 0
-101 36 -90 0
101 -19 82 0
101 19 -82 0
101 -20 83 0
101 20 -83 0
101 -21 84 0
101 21 -84 0
101 -22 85 0
101 22 -85 0
101 -23 86 0
101 23 -86 0
101 -24 87 0
101 24 -87 0
101 -25 88 0
101 25 -88 0
101 -26 89 0
101 26 -89 0
101 -27 90 0
101 27 -90 0
101 -28 46 0
101 28 -46 0
101 -29 47 0
101 29 -47 0
101 -30 48 0
101 30 -48 0
101 -31 49 0
101 31 -49 0
101 -32 50 0
101 32 -50 0
101 -33 51 0
101 33 -51 0
101 -34 52 0
101 34 -52 0
101 -35 53 0
101 35 -53 0
101 -36 54 0
101 36 -54 0
-100 -1 19 0
-100 1 -19 0
-100 -2 20 0
-100 2 -20 0
-100 -3 21 0
-100 3 -21 0
-100 -4 22 0
-100 4 -22 0
-100 -5 23 0
-100 5 -23 0
-100 -6 24 0
-100 6 -24 0
-100 -7 25 0
-100 7 -25 0
-100 -8 26 0
-100 8 -26 0
-100 -9 27 0
-100 9 -27 0
-100 -10 73 0
-100 10 -73 0
-100 -11 74 0
-100 11 -74 0
-100 -12 75 0
-100 12 -75 0
-100 -13 76 0
-100 13 -76 0
-100 -14 77 0
-100 14 -77 0
-100 -15 78 0
-100 15 -78 0
-100 -16 79 0
-100 16 -79 0
-100 -17 80 0
-100 17 -80 0
-100 -18 81 0
-100 18 -81 0
100 -1 73 0
100 1 -73 0
100 -2 74 0
100 2 -74 0
100 -3 75 0
100 3 -75 0
100 -4 76 0
100 4 -76 0
100 -5 77 0
100 5 -77 0
100 -6 78 0
100 6 -78 0
100 -7 79 0
100 7 -79 0
100 -8 80 0
100 8 -80 0
100 -9 81 0
100 9 -81 0
100 -10 28 0
100 10 -28 0
100 -11 29 0
100 11 -29 0
100 -12 30 0
100 12 -30 0
100 -13 31 0
100 13 -31 0
100 -14 32 0
100 14 -32 0
100 -15 33 0
100 15 -33 0
100 -16 34 0
100 16 -34 0
100 -17 35 0
100 17 -35 0
100 -18 36 0
100 18 -36 0
-57 0
-61 0
-62 0
-63 0
-6 9 0
-6 5 0
6 -9 -5 0
-5 8 0
-5 4 0
5 -8 -4 0
-4 7 0
4 -7 0
1 -2 -18 9 5 0
1 -2 -18 -9 -5 0
1 -2 18 -9 5 0
1 -2 18 9 -5 0
1 -2 -17 8 4 0
1 -2 -17 -8 -4 0
1 -2 17 -8 4 0
1 -2 17 8 -4 0
1 -2 -16 -7 0
1 -2 16 7 0
-1 -18 0
-1 -17 0
-1 -16 0
1 2 -18 9 0
1 2 18 -9 0
1 2 -17 8 0
1 2 17 -8 0
1 2 -16 7 0
1 2 16 -7 0
-12 3 6 0
-3 12 0
12 -6 0
-15 18 0
-15 14 0
15 -18 -14 0
-14 17 0
-14 13 0
14 -17 -13 0
-13 16 0
13 -16 0
66 0
